(set-info :smt-lib-version 2.6)
(set-logic QF_FP)
(set-option :produce-models true)
(set-info :source |Random FP created by PyMPF|)
(set-info :license |https://www.gnu.org/licenses/gpl-3.0.html|)
(set-info :category random)
(set-info :status sat)
(declare-const x Float32)
(assert (= x (fp #b0 #b00000000 #b11001010100001110100101)))
;; x should be Float32(0x006543A5 [Rational(6636453, 713623846352979940529142984724747568191373312), 0.000000])

(declare-const y Float32)
(assert (= y ((_ to_fp 8 24) #x807FFFFF)))
;; y should be Float32(0x807FFFFF [Rational(-8388607, 713623846352979940529142984724747568191373312), -0.000000])

(declare-const result Float32)
(assert (= result (fp.rem x y)))
(assert (= result ((_ to_fp 8 24) #x801ABC5A)))
(check-sat)
(exit)
